57
3 27 39 97 
3 43 21 48 
2 56 8 
3 79 17 110 
3 45 13 57 
3 28 84 63 
3 104 18 55 
2 60 26 
2 32 77 
3 22 88 7 
3 102 35 3 
2 4 100 
2 99 12 
2 112 30 
2 13 80 
2 81 41 
3 51 86 44 
3 64 113 36 
2 111 75 
2 103 5 
2 66 14 
2 49 72 
2 120 2 
2 74 90 
2 34 75 
2 101 19 
3 82 24 91 
3 61 87 52 
2 4 100 
2 11 116 
2 33 78 
3 73 93 42 
3 37 67 1 
2 25 9 
2 31 96 
2 108 54 
2 95 85 
2 6 70 
2 114 68 
1 89 
2 46 87 
2 59 40 
2 53 23 
2 29 109 
2 15 69 
1 92 
2 106 58 
1 118 
2 10 38 
3 98 50 11 
1 20 
1 62 
1 117 
1 71 
1 47 
2 94 76 
1 119 
